p cnf 386 460
5 -6 2 21 22 0
5 -6 2 21 -22 0
5 -6 2 -21 23 0
5 -6 2 -21 -23 0
-14 4 -15 24 25 0
-14 4 -15 24 -25 0
-14 4 -15 -24 26 0
-14 4 -15 -24 -26 0
4 -2 16 27 28 0
4 -2 16 27 -28 0
4 -2 16 -27 29 0
4 -2 16 -27 -29 0
9 -2 4 30 31 0
9 -2 4 30 -31 0
9 -2 4 -30 32 0
9 -2 4 -30 -32 0
16 -8 6 33 34 0
16 -8 6 33 -34 0
16 -8 6 -33 35 0
16 -8 6 -33 -35 0
-11 -5 7 36 37 0
-11 -5 7 36 -37 0
-11 -5 7 -36 38 0
-11 -5 7 -36 -38 0
15 6 -9 39 40 0
15 6 -9 39 -40 0
15 6 -9 -39 41 0
15 6 -9 -39 -41 0
-19 -7 -18 42 43 0
-19 -7 -18 42 -43 0
-19 -7 -18 -42 44 0
-19 -7 -18 -42 -44 0
3 -4 13 45 46 0
3 -4 13 45 -46 0
3 -4 13 -45 47 0
3 -4 13 -45 -47 0
-14 -9 -17 48 49 0
-14 -9 -17 48 -49 0
-14 -9 -17 -48 50 0
-14 -9 -17 -48 -50 0
1 -5 -2 51 52 0
1 -5 -2 51 -52 0
1 -5 -2 -51 53 0
1 -5 -2 -51 -53 0
13 -10 19 54 55 0
13 -10 19 54 -55 0
13 -10 19 -54 56 0
13 -10 19 -54 -56 0
-17 -18 8 57 58 0
-17 -18 8 57 -58 0
-17 -18 8 -57 59 0
-17 -18 8 -57 -59 0
-6 15 7 60 61 0
-6 15 7 60 -61 0
-6 15 7 -60 62 0
-6 15 7 -60 -62 0
8 -14 9 63 64 0
8 -14 9 63 -64 0
8 -14 9 -63 65 0
8 -14 9 -63 -65 0
1 13 7 66 67 0
1 13 7 66 -67 0
1 13 7 -66 68 0
1 13 7 -66 -68 0
-16 -13 -12 69 70 0
-16 -13 -12 69 -70 0
-16 -13 -12 -69 71 0
-16 -13 -12 -69 -71 0
16 10 -8 72 73 0
16 10 -8 72 -73 0
16 10 -8 -72 74 0
16 10 -8 -72 -74 0
-6 9 -14 75 76 0
-6 9 -14 75 -76 0
-6 9 -14 -75 77 0
-6 9 -14 -75 -77 0
13 -15 8 78 79 0
13 -15 8 78 -79 0
13 -15 8 -78 80 0
13 -15 8 -78 -80 0
-4 20 -14 81 82 0
-4 20 -14 81 -82 0
-4 20 -14 -81 83 0
-4 20 -14 -81 -83 0
13 -17 -7 84 85 0
13 -17 -7 84 -85 0
13 -17 -7 -84 86 0
13 -17 -7 -84 -86 0
15 7 -10 87 88 0
15 7 -10 87 -88 0
15 7 -10 -87 89 0
15 7 -10 -87 -89 0
2 15 -7 90 91 0
2 15 -7 90 -91 0
2 15 -7 -90 92 0
2 15 -7 -90 -92 0
3 -17 20 93 94 0
3 -17 20 93 -94 0
3 -17 20 -93 95 0
3 -17 20 -93 -95 0
1 10 14 96 97 0
1 10 14 96 -97 0
1 10 14 -96 98 0
1 10 14 -96 -98 0
19 10 11 99 100 0
19 10 11 99 -100 0
19 10 11 -99 101 0
19 10 11 -99 -101 0
16 -20 8 102 103 0
16 -20 8 102 -103 0
16 -20 8 -102 104 0
16 -20 8 -102 -104 0
19 15 -4 105 106 0
19 15 -4 105 -106 0
19 15 -4 -105 107 0
19 15 -4 -105 -107 0
4 5 9 108 109 0
4 5 9 108 -109 0
4 5 9 -108 110 0
4 5 9 -108 -110 0
7 -15 20 111 112 0
7 -15 20 111 -112 0
7 -15 20 -111 113 0
7 -15 20 -111 -113 0
-7 -8 17 114 115 0
-7 -8 17 114 -115 0
-7 -8 17 -114 116 0
-7 -8 17 -114 -116 0
-13 17 -10 117 118 0
-13 17 -10 117 -118 0
-13 17 -10 -117 119 0
-13 17 -10 -117 -119 0
16 -3 1 120 121 0
16 -3 1 120 -121 0
16 -3 1 -120 122 0
16 -3 1 -120 -122 0
-11 3 -8 123 124 0
-11 3 -8 123 -124 0
-11 3 -8 -123 125 0
-11 3 -8 -123 -125 0
3 15 -11 126 127 0
3 15 -11 126 -127 0
3 15 -11 -126 128 0
3 15 -11 -126 -128 0
9 -17 14 129 130 0
9 -17 14 129 -130 0
9 -17 14 -129 131 0
9 -17 14 -129 -131 0
3 -10 -11 132 133 0
3 -10 -11 132 -133 0
3 -10 -11 -132 134 0
3 -10 -11 -132 -134 0
11 20 19 135 136 0
11 20 19 135 -136 0
11 20 19 -135 137 0
11 20 19 -135 -137 0
-8 12 5 138 139 0
-8 12 5 138 -139 0
-8 12 5 -138 140 0
-8 12 5 -138 -140 0
18 -1 19 141 142 0
18 -1 19 141 -142 0
18 -1 19 -141 143 0
18 -1 19 -141 -143 0
-18 -9 -13 144 145 0
-18 -9 -13 144 -145 0
-18 -9 -13 -144 146 0
-18 -9 -13 -144 -146 0
-6 -18 14 147 148 0
-6 -18 14 147 -148 0
-6 -18 14 -147 149 0
-6 -18 14 -147 -149 0
-15 19 -9 150 151 0
-15 19 -9 150 -151 0
-15 19 -9 -150 152 0
-15 19 -9 -150 -152 0
-11 -12 10 153 154 0
-11 -12 10 153 -154 0
-11 -12 10 -153 155 0
-11 -12 10 -153 -155 0
-17 -6 -11 156 157 0
-17 -6 -11 156 -157 0
-17 -6 -11 -156 158 0
-17 -6 -11 -156 -158 0
6 -11 -14 159 160 0
6 -11 -14 159 -160 0
6 -11 -14 -159 161 0
6 -11 -14 -159 -161 0
7 11 15 162 163 0
7 11 15 162 -163 0
7 11 15 -162 164 0
7 11 15 -162 -164 0
20 12 18 165 166 0
20 12 18 165 -166 0
20 12 18 -165 167 0
20 12 18 -165 -167 0
7 -3 15 168 169 0
7 -3 15 168 -169 0
7 -3 15 -168 170 0
7 -3 15 -168 -170 0
-20 10 -14 171 172 0
-20 10 -14 171 -172 0
-20 10 -14 -171 173 0
-20 10 -14 -171 -173 0
6 -3 20 174 175 0
6 -3 20 174 -175 0
6 -3 20 -174 176 0
6 -3 20 -174 -176 0
-13 -19 7 177 178 0
-13 -19 7 177 -178 0
-13 -19 7 -177 179 0
-13 -19 7 -177 -179 0
20 -9 -6 180 181 0
20 -9 -6 180 -181 0
20 -9 -6 -180 182 0
20 -9 -6 -180 -182 0
-16 9 -19 183 184 0
-16 9 -19 183 -184 0
-16 9 -19 -183 185 0
-16 9 -19 -183 -185 0
-5 2 -13 186 187 0
-5 2 -13 186 -187 0
-5 2 -13 -186 188 0
-5 2 -13 -186 -188 0
16 1 -20 189 190 0
16 1 -20 189 -190 0
16 1 -20 -189 191 0
16 1 -20 -189 -191 0
8 -19 18 192 193 0
8 -19 18 192 -193 0
8 -19 18 -192 194 0
8 -19 18 -192 -194 0
-7 -5 12 195 196 0
-7 -5 12 195 -196 0
-7 -5 12 -195 197 0
-7 -5 12 -195 -197 0
11 13 14 198 199 0
11 13 14 198 -199 0
11 13 14 -198 200 0
11 13 14 -198 -200 0
-8 12 4 201 202 0
-8 12 4 201 -202 0
-8 12 4 -201 203 0
-8 12 4 -201 -203 0
-18 20 -5 204 205 0
-18 20 -5 204 -205 0
-18 20 -5 -204 206 0
-18 20 -5 -204 -206 0
8 16 11 207 208 0
8 16 11 207 -208 0
8 16 11 -207 209 0
8 16 11 -207 -209 0
12 9 11 210 211 0
12 9 11 210 -211 0
12 9 11 -210 212 0
12 9 11 -210 -212 0
9 15 2 213 214 0
9 15 2 213 -214 0
9 15 2 -213 215 0
9 15 2 -213 -215 0
4 -12 1 216 217 0
4 -12 1 216 -217 0
4 -12 1 -216 218 0
4 -12 1 -216 -218 0
-12 9 -5 219 220 0
-12 9 -5 219 -220 0
-12 9 -5 -219 221 0
-12 9 -5 -219 -221 0
-8 13 18 222 223 0
-8 13 18 222 -223 0
-8 13 18 -222 224 0
-8 13 18 -222 -224 0
-9 18 15 225 226 0
-9 18 15 225 -226 0
-9 18 15 -225 227 0
-9 18 15 -225 -227 0
20 17 -5 228 229 0
20 17 -5 228 -229 0
20 17 -5 -228 230 0
20 17 -5 -228 -230 0
-5 12 -13 231 232 0
-5 12 -13 231 -232 0
-5 12 -13 -231 233 0
-5 12 -13 -231 -233 0
-3 -12 -2 234 235 0
-3 -12 -2 234 -235 0
-3 -12 -2 -234 236 0
-3 -12 -2 -234 -236 0
7 8 -1 237 238 0
7 8 -1 237 -238 0
7 8 -1 -237 239 0
7 8 -1 -237 -239 0
8 14 2 240 241 0
8 14 2 240 -241 0
8 14 2 -240 242 0
8 14 2 -240 -242 0
6 9 -7 243 244 0
6 9 -7 243 -244 0
6 9 -7 -243 245 0
6 9 -7 -243 -245 0
-18 -14 3 246 247 0
-18 -14 3 246 -247 0
-18 -14 3 -246 248 0
-18 -14 3 -246 -248 0
11 13 -5 249 250 0
11 13 -5 249 -250 0
11 13 -5 -249 251 0
11 13 -5 -249 -251 0
-15 8 -20 252 253 0
-15 8 -20 252 -253 0
-15 8 -20 -252 254 0
-15 8 -20 -252 -254 0
-6 4 19 255 256 0
-6 4 19 255 -256 0
-6 4 19 -255 257 0
-6 4 19 -255 -257 0
20 -16 11 258 259 0
20 -16 11 258 -259 0
20 -16 11 -258 260 0
20 -16 11 -258 -260 0
3 11 -5 261 262 0
3 11 -5 261 -262 0
3 11 -5 -261 263 0
3 11 -5 -261 -263 0
-13 15 16 264 265 0
-13 15 16 264 -265 0
-13 15 16 -264 266 0
-13 15 16 -264 -266 0
-15 9 1 267 268 0
-15 9 1 267 -268 0
-15 9 1 -267 269 0
-15 9 1 -267 -269 0
8 12 -6 270 271 0
8 12 -6 270 -271 0
8 12 -6 -270 272 0
8 12 -6 -270 -272 0
11 5 9 273 274 0
11 5 9 273 -274 0
11 5 9 -273 275 0
11 5 9 -273 -275 0
4 -12 -16 276 277 0
4 -12 -16 276 -277 0
4 -12 -16 -276 278 0
4 -12 -16 -276 -278 0
-19 7 -13 279 280 0
-19 7 -13 279 -280 0
-19 7 -13 -279 281 0
-19 7 -13 -279 -281 0
1 3 15 282 283 0
1 3 15 282 -283 0
1 3 15 -282 284 0
1 3 15 -282 -284 0
20 10 -9 285 286 0
20 10 -9 285 -286 0
20 10 -9 -285 287 0
20 10 -9 -285 -287 0
11 -12 1 288 289 0
11 -12 1 288 -289 0
11 -12 1 -288 290 0
11 -12 1 -288 -290 0
-13 -7 10 291 292 0
-13 -7 10 291 -292 0
-13 -7 10 -291 293 0
-13 -7 10 -291 -293 0
294 295 297 301 309 0
294 295 297 301 -309 0
294 295 297 -301 310 0
294 295 297 -301 -310 0
294 295 -297 302 311 0
294 295 -297 302 -311 0
294 295 -297 -302 312 0
294 295 -297 -302 -312 0
294 -295 298 303 313 0
294 -295 298 303 -313 0
294 -295 298 -303 314 0
294 -295 298 -303 -314 0
294 -295 -298 304 315 0
294 -295 -298 304 -315 0
294 -295 -298 -304 316 0
294 -295 -298 -304 -316 0
-294 296 299 305 317 0
-294 296 299 305 -317 0
-294 296 299 -305 318 0
-294 296 299 -305 -318 0
-294 296 -299 306 319 0
-294 296 -299 306 -319 0
-294 296 -299 -306 320 0
-294 296 -299 -306 -320 0
-294 -296 300 307 321 0
-294 -296 300 307 -321 0
-294 -296 300 -307 322 0
-294 -296 300 -307 -322 0
-294 -296 -300 308 323 0
-294 -296 -300 308 -323 0
-294 -296 -300 -308 324 0
-294 -296 -300 -308 -324 0
325 326 328 332 340 0
325 326 328 332 -340 0
325 326 328 -332 341 0
325 326 328 -332 -341 0
325 326 -328 333 342 0
325 326 -328 333 -342 0
325 326 -328 -333 343 0
325 326 -328 -333 -343 0
325 -326 329 334 344 0
325 -326 329 334 -344 0
325 -326 329 -334 345 0
325 -326 329 -334 -345 0
325 -326 -329 335 346 0
325 -326 -329 335 -346 0
325 -326 -329 -335 347 0
325 -326 -329 -335 -347 0
-325 327 330 336 348 0
-325 327 330 336 -348 0
-325 327 330 -336 349 0
-325 327 330 -336 -349 0
-325 327 -330 337 350 0
-325 327 -330 337 -350 0
-325 327 -330 -337 351 0
-325 327 -330 -337 -351 0
-325 -327 331 338 352 0
-325 -327 331 338 -352 0
-325 -327 331 -338 353 0
-325 -327 331 -338 -353 0
-325 -327 -331 339 354 0
-325 -327 -331 339 -354 0
-325 -327 -331 -339 355 0
-325 -327 -331 -339 -355 0
356 357 359 363 371 0
356 357 359 363 -371 0
356 357 359 -363 372 0
356 357 359 -363 -372 0
356 357 -359 364 373 0
356 357 -359 364 -373 0
356 357 -359 -364 374 0
356 357 -359 -364 -374 0
356 -357 360 365 375 0
356 -357 360 365 -375 0
356 -357 360 -365 376 0
356 -357 360 -365 -376 0
356 -357 -360 366 377 0
356 -357 -360 366 -377 0
356 -357 -360 -366 378 0
356 -357 -360 -366 -378 0
-356 358 361 367 379 0
-356 358 361 367 -379 0
-356 358 361 -367 380 0
-356 358 361 -367 -380 0
-356 358 -361 368 381 0
-356 358 -361 368 -381 0
-356 358 -361 -368 382 0
-356 358 -361 -368 -382 0
-356 -358 362 369 383 0
-356 -358 362 369 -383 0
-356 -358 362 -369 384 0
-356 -358 362 -369 -384 0
-356 -358 -362 370 385 0
-356 -358 -362 370 -385 0
-356 -358 -362 -370 386 0
-356 -358 -362 -370 -386 0

